PARAMETER_FILE = even/even_uncomplete_graph_new/seg/par/random71.par
PROBLEM_FILE = even/even_uncomplete_graph_new/seg/mat/random71.tsp
Successes/Runs = 0/10
Cost.min = 669, Cost.avg = 669.00, Cost.max = 669
Gap.min = 0.0000%, Gap.avg = 0.0000%, Gap.max = 0.0000%
Trials.min = 1000, Trials.avg = 1000.0, Trials.max = 1000
Time.min = 0.08 sec., Time.avg = 0.08 sec., Time.max = 0.09 sec.
Time.total = 0.87 sec.
